c Generated Levenshtein permutation graph
p edge 429 1116
e 9 110
e 9 112
e 9 113
e 9 117
e 9 119
e 9 120
e 9 121
e 9 122
e 9 138
e 9 140
e 9 141
e 9 145
e 9 147
e 9 148
e 9 149
e 9 150
e 9 200
e 9 202
e 9 203
e 9 207
e 9 209
e 9 210
e 9 211
e 9 212
e 9 270
e 9 272
e 9 273
e 9 277
e 9 279
e 9 280
e 9 281
e 9 282
e 10 96
e 10 112
e 10 113
e 10 117
e 10 119
e 10 120
e 10 121
e 10 122
e 10 140
e 10 141
e 10 145
e 10 147
e 10 148
e 10 149
e 10 150
e 10 186
e 10 202
e 10 203
e 10 207
e 10 209
e 10 210
e 10 211
e 10 212
e 10 272
e 10 273
e 10 277
e 10 279
e 10 280
e 10 281
e 10 282
e 11 96
e 11 110
e 11 111
e 11 114
e 11 138
e 11 139
e 11 142
e 11 202
e 11 203
e 11 207
e 11 209
e 11 210
e 11 211
e 11 212
e 11 272
e 11 273
e 11 277
e 11 279
e 11 280
e 11 281
e 11 282
e 12 96
e 12 110
e 12 111
e 12 114
e 12 138
e 12 139
e 12 142
e 12 186
e 12 200
e 12 201
e 12 204
e 12 270
e 12 271
e 12 274
e 15 96
e 15 99
e 15 100
e 15 117
e 15 119
e 15 122
e 15 145
e 15 147
e 15 150
e 15 186
e 15 189
e 15 190
e 15 207
e 15 209
e 15 212
e 15 277
e 15 279
e 15 282
e 16 96
e 16 97
e 16 98
e 16 110
e 16 114
e 16 138
e 16 142
e 16 189
e 16 190
e 16 207
e 16 209
e 16 212
e 16 277
e 16 279
e 16 282
e 17 96
e 17 97
e 17 98
e 17 110
e 17 114
e 17 138
e 17 142
e 17 186
e 17 187
e 17 188
e 17 200
e 17 204
e 17 270
e 17 274
e 20 97
e 20 98
e 20 207
e 20 209
e 20 212
e 20 277
e 20 279
e 20 282
e 21 97
e 21 98
e 21 186
e 21 200
e 21 204
e 21 270
e 21 274
e 29 87
e 29 89
e 29 90
e 29 91
e 29 92
e 29 93
e 29 94
e 29 129
e 29 131
e 29 132
e 29 133
e 29 134
e 29 135
e 29 136
e 29 145
e 29 177
e 29 179
e 29 180
e 29 181
e 29 182
e 29 183
e 29 184
e 29 261
e 29 263
e 29 264
e 29 265
e 29 266
e 29 267
e 29 268
e 29 277
e 30 82
e 30 89
e 30 90
e 30 91
e 30 92
e 30 93
e 30 94
e 30 131
e 30 132
e 30 133
e 30 134
e 30 135
e 30 136
e 30 145
e 30 172
e 30 179
e 30 180
e 30 181
e 30 182
e 30 183
e 30 184
e 30 263
e 30 264
e 30 265
e 30 266
e 30 267
e 30 268
e 30 277
e 31 82
e 31 87
e 31 88
e 31 129
e 31 130
e 31 142
e 31 179
e 31 180
e 31 181
e 31 182
e 31 183
e 31 184
e 31 263
e 31 264
e 31 265
e 31 266
e 31 267
e 31 268
e 31 277
e 32 82
e 32 87
e 32 88
e 32 129
e 32 130
e 32 142
e 32 172
e 32 177
e 32 178
e 32 261
e 32 262
e 32 274
e 34 78
e 34 79
e 34 80
e 34 125
e 34 126
e 34 127
e 34 131
e 34 132
e 34 140
e 34 168
e 34 169
e 34 170
e 34 257
e 34 258
e 34 259
e 34 263
e 34 264
e 34 272
e 35 126
e 35 127
e 35 133
e 35 136
e 35 153
e 35 154
e 35 156
e 35 159
e 35 216
e 35 217
e 35 223
e 35 226
e 35 243
e 35 244
e 35 246
e 35 249
e 35 258
e 35 259
e 35 265
e 35 268
e 35 285
e 35 286
e 35 288
e 35 291
e 35 348
e 35 349
e 35 355
e 35 358
e 35 375
e 35 376
e 35 378
e 35 381
e 36 126
e 36 127
e 36 133
e 36 136
e 36 153
e 36 154
e 36 156
e 36 159
e 36 215
e 36 219
e 36 243
e 36 244
e 36 246
e 36 249
e 36 258
e 36 259
e 36 265
e 36 268
e 36 285
e 36 286
e 36 288
e 36 291
e 36 348
e 36 349
e 36 355
e 36 358
e 36 375
e 36 376
e 36 378
e 36 381
e 37 125
e 37 129
e 37 215
e 37 219
e 37 243
e 37 244
e 37 246
e 37 249
e 37 258
e 37 259
e 37 265
e 37 268
e 37 285
e 37 286
e 37 288
e 37 291
e 37 347
e 37 351
e 38 125
e 38 129
e 38 257
e 38 261
e 39 77
e 39 79
e 39 80
e 39 126
e 39 127
e 39 131
e 39 132
e 39 140
e 39 167
e 39 169
e 39 170
e 39 258
e 39 259
e 39 263
e 39 264
e 39 272
e 40 79
e 40 80
e 40 133
e 40 136
e 40 156
e 40 159
e 40 169
e 40 170
e 40 215
e 40 216
e 40 217
e 40 246
e 40 249
e 40 265
e 40 268
e 40 288
e 40 291
e 40 355
e 40 358
e 40 378
e 40 381
e 41 77
e 41 78
e 41 129
e 41 169
e 41 170
e 41 215
e 41 216
e 41 217
e 41 246
e 41 249
e 41 265
e 41 268
e 41 288
e 41 291
e 41 351
e 42 77
e 42 78
e 42 129
e 42 167
e 42 168
e 42 261
e 43 77
e 43 78
e 43 125
e 43 130
e 43 139
e 43 169
e 43 170
e 43 258
e 43 259
e 43 263
e 43 264
e 43 272
e 44 77
e 44 78
e 44 246
e 44 249
e 44 265
e 44 268
e 44 288
e 44 291
e 45 77
e 45 78
e 45 261
e 46 77
e 46 78
e 46 125
e 46 130
e 46 139
e 46 167
e 46 168
e 46 257
e 46 262
e 46 271
e 49 82
e 49 85
e 49 86
e 49 91
e 49 94
e 49 133
e 49 136
e 49 145
e 49 172
e 49 175
e 49 176
e 49 181
e 49 184
e 49 265
e 49 268
e 49 277
e 50 82
e 50 83
e 50 84
e 50 87
e 50 129
e 50 142
e 50 175
e 50 176
e 50 181
e 50 184
e 50 265
e 50 268
e 50 277
e 51 82
e 51 83
e 51 84
e 51 87
e 51 129
e 51 142
e 51 172
e 51 173
e 51 174
e 51 177
e 51 261
e 51 274
e 53 77
e 53 79
e 53 80
e 53 85
e 53 86
e 53 89
e 53 90
e 53 126
e 53 127
e 53 140
e 53 167
e 53 169
e 53 170
e 53 175
e 53 176
e 53 179
e 53 180
e 53 258
e 53 259
e 53 272
e 54 79
e 54 80
e 54 91
e 54 94
e 54 169
e 54 170
e 54 181
e 54 184
e 54 215
e 54 216
e 54 217
e 54 219
e 54 223
e 54 226
e 55 77
e 55 78
e 55 82
e 55 87
e 55 169
e 55 170
e 55 181
e 55 184
e 55 215
e 55 216
e 55 217
e 55 219
e 55 223
e 55 226
e 56 77
e 56 78
e 56 82
e 56 87
e 56 167
e 56 168
e 56 172
e 56 177
e 57 77
e 57 78
e 57 83
e 57 84
e 57 88
e 57 125
e 57 139
e 57 169
e 57 170
e 57 175
e 57 176
e 57 179
e 57 180
e 57 258
e 57 259
e 57 272
e 58 77
e 58 78
e 58 181
e 58 184
e 58 219
e 58 223
e 58 226
e 59 77
e 59 78
e 59 172
e 59 177
e 60 77
e 60 78
e 60 83
e 60 84
e 60 88
e 60 125
e 60 139
e 60 167
e 60 168
e 60 173
e 60 174
e 60 178
e 60 257
e 60 271
e 63 83
e 63 84
e 63 181
e 63 184
e 63 265
e 63 268
e 63 277
e 64 83
e 64 84
e 64 172
e 64 177
e 64 261
e 64 274
e 66 83
e 66 84
e 66 88
e 66 169
e 66 170
e 66 258
e 66 259
e 66 272
e 69 83
e 69 84
e 69 88
e 69 167
e 69 168
e 69 257
e 69 271
e 77 177
e 77 180
e 77 184
e 77 261
e 77 264
e 77 268
e 77 291
e 78 172
e 78 180
e 78 184
e 78 264
e 78 268
e 78 291
e 79 180
e 79 184
e 79 264
e 79 268
e 79 291
e 80 172
e 80 177
e 80 178
e 80 179
e 80 181
e 80 261
e 80 262
e 80 263
e 80 265
e 80 288
e 82 168
e 82 170
e 82 257
e 82 259
e 82 264
e 82 267
e 82 286
e 83 188
e 83 189
e 83 195
e 83 198
e 83 201
e 83 202
e 83 204
e 83 207
e 83 259
e 83 268
e 83 271
e 83 272
e 83 274
e 83 277
e 83 320
e 83 321
e 83 327
e 83 330
e 83 333
e 83 334
e 83 336
e 83 339
e 84 187
e 84 191
e 84 201
e 84 202
e 84 204
e 84 207
e 84 259
e 84 268
e 84 271
e 84 272
e 84 274
e 84 277
e 84 320
e 84 321
e 84 327
e 84 330
e 84 333
e 84 334
e 84 336
e 84 339
e 85 187
e 85 191
e 85 201
e 85 202
e 85 204
e 85 207
e 85 259
e 85 268
e 85 271
e 85 272
e 85 274
e 85 277
e 85 319
e 85 323
e 86 257
e 86 258
e 86 261
e 86 265
e 87 167
e 87 170
e 87 259
e 87 264
e 87 267
e 87 286
e 88 170
e 88 187
e 88 188
e 88 189
e 88 204
e 88 207
e 88 268
e 88 274
e 88 277
e 88 327
e 88 330
e 88 336
e 88 339
e 89 170
e 89 187
e 89 188
e 89 189
e 89 204
e 89 207
e 89 268
e 89 274
e 89 277
e 89 323
e 90 167
e 90 168
e 90 169
e 90 261
e 90 265
e 91 170
e 91 259
e 91 264
e 91 267
e 91 286
e 92 204
e 92 207
e 92 268
e 92 274
e 92 277
e 93 261
e 93 265
e 94 167
e 94 168
e 94 169
e 94 257
e 94 258
e 94 262
e 94 263
e 94 266
e 94 285
e 96 273
e 96 281
e 97 174
e 97 175
e 97 178
e 97 179
e 97 195
e 97 198
e 97 262
e 97 263
e 97 274
e 97 277
e 97 282
e 97 306
e 97 307
e 97 310
e 97 311
e 97 327
e 97 330
e 98 173
e 98 178
e 98 179
e 98 191
e 98 262
e 98 263
e 98 274
e 98 277
e 98 282
e 98 306
e 98 307
e 98 310
e 98 311
e 98 327
e 98 330
e 99 173
e 99 178
e 99 179
e 99 191
e 99 262
e 99 263
e 99 274
e 99 277
e 99 282
e 99 305
e 99 323
e 100 270
e 100 279
e 101 174
e 101 175
e 101 188
e 101 189
e 101 262
e 101 263
e 101 266
e 101 271
e 101 272
e 101 280
e 101 306
e 101 307
e 101 320
e 101 321
e 105 173
e 105 187
e 105 262
e 105 263
e 105 266
e 105 271
e 105 272
e 105 280
e 105 306
e 105 307
e 105 320
e 105 321
e 108 173
e 108 187
e 108 262
e 108 263
e 108 266
e 108 271
e 108 272
e 108 280
e 108 305
e 108 319
e 110 273
e 110 281
e 111 173
e 111 174
e 111 175
e 111 274
e 111 277
e 111 282
e 111 327
e 111 330
e 112 173
e 112 174
e 112 175
e 112 274
e 112 277
e 112 282
e 112 323
e 113 270
e 113 279
e 114 173
e 114 174
e 114 175
e 114 178
e 114 179
e 114 182
e 114 271
e 114 272
e 114 280
e 114 320
e 114 321
e 117 173
e 117 174
e 117 175
e 117 178
e 117 179
e 117 182
e 117 271
e 117 272
e 117 280
e 117 319
e 119 273
e 119 281
e 120 274
e 120 277
e 120 282
e 121 270
e 121 279
e 122 271
e 122 272
e 122 280
e 125 172
e 125 176
e 125 184
e 125 268
e 125 291
e 126 176
e 126 184
e 126 268
e 126 291
e 127 172
e 127 173
e 127 174
e 127 175
e 127 177
e 127 181
e 127 261
e 127 265
e 127 288
e 129 167
e 129 170
e 129 176
e 129 180
e 129 183
e 129 259
e 129 286
e 130 170
e 130 184
e 130 187
e 130 188
e 130 189
e 130 191
e 130 195
e 130 198
e 131 170
e 131 184
e 131 187
e 131 188
e 131 189
e 131 191
e 131 195
e 131 198
e 132 167
e 132 168
e 132 169
e 132 172
e 132 177
e 132 181
e 133 170
e 133 176
e 133 180
e 133 183
e 133 259
e 133 286
e 134 184
e 134 191
e 134 195
e 134 198
e 135 172
e 135 177
e 135 181
e 136 167
e 136 168
e 136 169
e 136 173
e 136 174
e 136 175
e 136 178
e 136 179
e 136 182
e 136 257
e 136 258
e 136 285
e 138 190
e 138 203
e 138 211
e 139 173
e 139 174
e 139 175
e 139 191
e 139 195
e 139 198
e 139 204
e 139 207
e 139 212
e 140 173
e 140 174
e 140 175
e 140 191
e 140 195
e 140 198
e 140 204
e 140 207
e 140 212
e 141 186
e 141 200
e 141 209
e 142 173
e 142 174
e 142 175
e 142 178
e 142 179
e 142 182
e 142 187
e 142 188
e 142 189
e 142 201
e 142 202
e 142 210
e 145 173
e 145 174
e 145 175
e 145 178
e 145 179
e 145 182
e 145 187
e 145 188
e 145 189
e 145 201
e 145 202
e 145 210
e 147 190
e 147 203
e 147 211
e 148 191
e 148 195
e 148 198
e 148 204
e 148 207
e 148 212
e 149 186
e 149 200
e 149 209
e 150 187
e 150 188
e 150 189
e 150 201
e 150 202
e 150 210
e 153 184
e 153 268
e 153 291
e 154 172
e 154 177
e 154 181
e 154 261
e 154 265
e 154 288
e 156 170
e 156 259
e 156 286
e 159 167
e 159 168
e 159 169
e 159 257
e 159 258
e 159 285
e 173 321
e 173 330
e 174 321
e 174 330
e 175 319
e 175 320
e 175 323
e 175 327
e 178 330
e 179 323
e 179 327
e 187 307
e 187 330
e 187 339
e 188 307
e 188 330
e 188 339
e 189 305
e 189 306
e 189 323
e 189 327
e 189 336
e 191 307
e 191 311
e 191 321
e 191 334
e 195 307
e 195 311
e 195 321
e 195 334
e 198 305
e 198 306
e 198 310
e 198 319
e 198 320
e 198 333
e 201 330
e 201 339
e 202 323
e 202 327
e 202 336
e 204 321
e 204 334
e 207 319
e 207 320
e 207 333
e 215 358
e 215 381
e 216 358
e 216 381
e 217 351
e 217 355
e 217 378
e 219 349
e 219 376
e 223 349
e 223 376
e 226 347
e 226 348
e 226 375
e 243 358
e 243 381
e 244 351
e 244 355
e 244 378
e 246 349
e 246 376
e 249 347
e 249 348
e 249 375
